p cnf 20 20
2 4 -3 0
3 -1 0
4 0
-4 0
-2 3 0
3 6 -4 0
2 5 -6 -9 -8 0
5 2 4 0
3 -8 -5 0
3 5 2 1 -7 0
-2 -4 -3 0
-13 -11 0
14 0
-15 -1 0
-2 13 0
3 16 -4 0
12 15 -16 -19 -18 0
15 12 4 0
-13 -8 -5 0
3 15 12 11 -17 0